Version identifier: 22.1.0.0 | 2022-03-09 | 1a383f8ce
CPXPARAM_Threads                                 1
CPXPARAM_MIP_Strategy_VariableSelect             3
CPXPARAM_TimeLimit                               596.25666258900003
1 of 1 MIP starts provided solutions.
MIP start 'm1' defined initial solution with objective 281.0000.
Tried aggregator 2 times.
MIP Presolve eliminated 40 rows and 1 columns.
MIP Presolve added 36 rows and 9 columns.
MIP Presolve modified 56 coefficients.
Aggregator did 9 substitutions.
Reduced MIP has 1813 rows, 7800 columns, and 127220 nonzeros.
Reduced MIP has 7800 binaries, 0 generals, 0 SOSs, and 0 indicators.
Presolve time = 0.17 sec. (230.53 ticks)
Probing time = 0.02 sec. (21.63 ticks)
Tried aggregator 1 time.
Detecting symmetries...
MIP Presolve modified 14 coefficients.
Reduced MIP has 1813 rows, 7800 columns, and 127516 nonzeros.
Reduced MIP has 7800 binaries, 0 generals, 0 SOSs, and 0 indicators.
Presolve time = 0.13 sec. (173.93 ticks)
Probing time = 0.02 sec. (21.67 ticks)
Clique table members: 1195.
MIP emphasis: balance optimality and feasibility.
MIP search method: dynamic search.
Parallel mode: none, using 1 thread.
Root relaxation solution time = 2.13 sec. (2539.11 ticks)

        Nodes                                         Cuts/
   Node  Left     Objective  IInf  Best Integer    Best Bound    ItCnt     Gap

*     0+    0                          281.0000    45150.0000              --- 
      0     0      300.0000  1316      281.0000      300.0000     6056    6.76%
      0     0      300.0000   394      281.0000       Cuts: 7     7093    6.76%
      0     0      300.0000   637      281.0000     Cuts: 102    13265    6.76%
      0     0      300.0000   783      281.0000      Cuts: 31    19207    6.76%
Detecting symmetries...
      0     2      300.0000   405      281.0000      300.0000    19207    6.76%
Elapsed time = 65.10 sec. (71228.84 ticks, tree = 0.01 MB, solutions = 1)
      1     3      300.0000   727      281.0000      300.0000    29935    6.76%
      2     4      300.0000   464      281.0000      300.0000    35259    6.76%
      3     5      300.0000   945      281.0000      300.0000    42966    6.76%
      4     6      300.0000   449      281.0000      300.0000    43782    6.76%
      5     7      300.0000   901      281.0000      300.0000    52648    6.76%
      6     8      300.0000   456      281.0000      300.0000    53303    6.76%
      7     9      300.0000   776      281.0000      300.0000    62702    6.76%
      8    10      300.0000   458      281.0000      300.0000    62786    6.76%
      9    11      300.0000   718      281.0000      300.0000    71452    6.76%
     11    13      300.0000   898      281.0000      300.0000    84930    6.76%
Elapsed time = 91.59 sec. (99160.52 ticks, tree = 0.12 MB, solutions = 1)
     13    15      300.0000   752      281.0000      300.0000    94033    6.76%
     15    17      300.0000   754      281.0000      300.0000   101491    6.76%
     16    18      300.0000   419      281.0000      300.0000   103017    6.76%
     17    19      300.0000   978      281.0000      300.0000   110549    6.76%
     18    20      300.0000   618      281.0000      300.0000   121251    6.76%
     19    21      300.0000   882      281.0000      300.0000   128367    6.76%
     21    23      300.0000  1175      281.0000      300.0000   136896    6.76%
     23    25      300.0000  1243      281.0000      300.0000   139473    6.76%
     25    27      300.0000   689      281.0000      300.0000   142320    6.76%
     27    29      300.0000  1392      281.0000      300.0000   146715    6.76%
Elapsed time = 117.28 sec. (126547.26 ticks, tree = 0.33 MB, solutions = 1)
     29    31      300.0000   984      281.0000      300.0000   149055    6.76%
     31    33      300.0000  1125      281.0000      300.0000   151620    6.76%
     34    36      300.0000   882      281.0000      300.0000   153270    6.76%
     35    37      300.0000  1043      281.0000      300.0000   157082    6.76%
     38    40      300.0000   897      281.0000      300.0000   159861    6.76%
     40    42      300.0000   903      281.0000      300.0000   163993    6.76%
     42    44      300.0000   898      281.0000      300.0000   167242    6.76%
     43    45      300.0000  1015      281.0000      300.0000   172289    6.76%
     45    47      300.0000   932      281.0000      300.0000   176764    6.76%
     47    49      300.0000  1023      281.0000      300.0000   181036    6.76%
Elapsed time = 142.43 sec. (152502.42 ticks, tree = 0.67 MB, solutions = 1)
     49    51      300.0000  1061      281.0000      300.0000   184754    6.76%
     51    53      300.0000  1011      281.0000      300.0000   188425    6.76%
     53    55      300.0000   956      281.0000      300.0000   193098    6.76%
     55    57      300.0000   933      281.0000      300.0000   197533    6.76%
     57    59      300.0000   841      281.0000      300.0000   209843    6.76%
     59    61      300.0000   845      281.0000      300.0000   216384    6.76%
     61    63      300.0000   832      281.0000      300.0000   224722    6.76%
     64    66      300.0000   846      281.0000      300.0000   243496    6.76%
     66    68      300.0000   815      281.0000      300.0000   246726    6.76%
     67    69      300.0000   750      281.0000      300.0000   270626    6.76%
Elapsed time = 160.48 sec. (169981.96 ticks, tree = 1.03 MB, solutions = 1)
     69    71      300.0000   636      281.0000      300.0000   273423    6.76%
     70    71      299.0000   578      281.0000      300.0000   278660    6.76%
     73    73      299.1020   784      281.0000      300.0000   282637    6.76%
     74    73      299.0345   768      281.0000      300.0000   290545    6.76%
     77    75      299.0000   808      281.0000      300.0000   305744    6.76%
     80    78      300.0000   636      281.0000      300.0000   308829    6.76%
     82    80      300.0000   613      281.0000      300.0000   310966    6.76%
     84    81      300.0000   608      281.0000      300.0000   312853    6.76%
     86    82      299.0313   775      281.0000      300.0000   314493    6.76%
     88    84      300.0000   591      281.0000      300.0000   315846    6.76%
Elapsed time = 178.65 sec. (189999.88 ticks, tree = 1.28 MB, solutions = 1)
     90    85      300.0000   581      281.0000      300.0000   317671    6.76%
     91    85      298.7955   732      281.0000      300.0000   320466    6.76%
     93    86      298.7985   765      281.0000      300.0000   323621    6.76%
     95    88      300.0000   583      281.0000      300.0000   323633    6.76%
     96    88      298.5553   819      281.0000      300.0000   325568    6.76%
     99    89      298.9353   683      281.0000      300.0000   334498    6.76%
    100    90      300.0000   594      281.0000      300.0000   334622    6.76%
    102    92      300.0000   619      281.0000      300.0000   336859    6.76%
    104    93      300.0000   612      281.0000      300.0000   339079    6.76%
    107    95      298.9062   649      281.0000      300.0000   346629    6.76%
Elapsed time = 192.14 sec. (204522.26 ticks, tree = 1.48 MB, solutions = 1)
    109    96      298.9379   568      281.0000      300.0000   354062    6.76%
    112    99      300.0000   404      281.0000      300.0000   357841    6.76%
    115   101      300.0000   371      281.0000      300.0000   364228    6.76%
    118   103      299.0385   662      281.0000      300.0000   370092    6.76%
    120   104      299.0000   381      281.0000      300.0000   377287    6.76%
    122   105      298.6923   677      281.0000      300.0000   385801    6.76%
    125   106      298.7008   653      281.0000      300.0000   393217    6.76%
    127   107      298.8684   630      281.0000      300.0000   399567    6.76%
    130   109      298.6272   687      281.0000      300.0000   407467    6.76%
    133   111      300.0000   353      281.0000      300.0000   411103    6.76%
Elapsed time = 206.41 sec. (218084.89 ticks, tree = 1.76 MB, solutions = 1)
    136   112      298.7011   614      281.0000      300.0000   420965    6.76%
    138   113      298.9254   666      281.0000      300.0000   427208    6.76%
    140   114      298.8818   536      281.0000      300.0000   435803    6.76%
    143   115      300.0000   345      281.0000      300.0000   442047    6.76%
    146   117      300.0000   365      281.0000      300.0000   448194    6.76%
    148   118      300.0000   364      281.0000      300.0000   454510    6.76%
    151   119      298.8839   516      281.0000      300.0000   461900    6.76%
    154   121      300.0000   351      281.0000      300.0000   467172    6.76%
    155   121      298.8077   585      281.0000      300.0000   475082    6.76%
    158   123      300.0000   347      281.0000      300.0000   481679    6.76%
Elapsed time = 219.43 sec. (229841.55 ticks, tree = 1.97 MB, solutions = 1)
    161   124      298.8846   571      281.0000      300.0000   491326    6.76%
    163   125      298.7749   584      281.0000      300.0000   496635    6.76%
    165   126      298.6437   714      281.0000      300.0000   502831    6.76%
    168   128      300.0000   353      281.0000      300.0000   510528    6.76%
    170   129      300.0000   339      281.0000      300.0000   519433    6.76%
    173   130      298.7163   662      281.0000      300.0000   529024    6.76%
    177   134      300.0000   318      281.0000      300.0000   530964    6.76%
    180   136      300.0000   316      281.0000      300.0000   536639    6.76%
    184   139      300.0000   311      281.0000      300.0000   541056    6.76%
    186   139      299.6869   493      281.0000      300.0000   549530    6.76%
Elapsed time = 232.69 sec. (241462.68 ticks, tree = 2.27 MB, solutions = 1)
    189   141      298.7143   322      281.0000      300.0000   558311    6.76%
    193   143      297.7712   409      281.0000      300.0000   564838    6.76%
    196   144      298.0000   352      281.0000      300.0000   573741    6.76%
    199   146      298.0000   271      281.0000      300.0000   579509    6.76%
    202   147      297.5000   473      281.0000      300.0000   586404    6.76%
    207   150      296.5238   407      281.0000      300.0000   589856    6.76%
    212   155      297.0000   310      281.0000      300.0000   591857    6.76%
    217   158      297.0000   261      281.0000      300.0000   598411    6.76%
    221   160      297.0000   237      281.0000      300.0000   602721    6.76%
    235   169      296.6000   354      281.0000      300.0000   621280    6.76%
Elapsed time = 248.56 sec. (255825.71 ticks, tree = 2.77 MB, solutions = 1)
    247   176      297.0000   259      281.0000      300.0000   641432    6.76%
    262   182      296.2083   345      281.0000      300.0000   658274    6.76%
    280   191      296.0000   332      281.0000      300.0000   680704    6.76%
    291   198      297.0000   174      281.0000      300.0000   698849    6.76%
    302   203      297.0000   184      281.0000      300.0000   717413    6.76%
    313   208      296.2857   290      281.0000      300.0000   737838    6.76%
    325   212      296.0000   289      281.0000      300.0000   753244    6.76%
    345   222      296.0000   245      281.0000      300.0000   771138    6.76%
    364   232      294.7500   238      281.0000      300.0000   794899    6.76%
    379   241      294.0000   164      281.0000      300.0000   819207    6.76%
Elapsed time = 292.88 sec. (295840.86 ticks, tree = 4.03 MB, solutions = 1)
    397   252      294.0000   205      281.0000      300.0000   837369    6.76%
    419   267      292.3131   314      281.0000      300.0000   854175    6.76%
    445   282      292.0000   292      281.0000      300.0000   874473    6.76%
    478   302    infeasible            281.0000      300.0000   888633    6.76%
    485   304      300.0000   388      281.0000      300.0000   905981    6.76%
    496   310      299.1875   442      281.0000      300.0000   928151    6.76%
    507   318      299.0000   286      281.0000      300.0000   949230    6.76%
    517   323      299.0000   240      281.0000      300.0000   972844    6.76%
    530   331      297.0000   301      281.0000      300.0000   990788    6.76%
    544   341      296.0000   332      281.0000      300.0000  1008408    6.76%
Elapsed time = 339.23 sec. (336485.75 ticks, tree = 5.77 MB, solutions = 1)
    560   352      296.0000   260      281.0000      300.0000  1020115    6.76%
    580   363      296.0000   252      281.0000      300.0000  1037694    6.76%
    600   375      296.0000   229      281.0000      300.0000  1058739    6.76%
    617   385      296.0000   260      281.0000      300.0000  1079018    6.76%
    638   400      296.0000   243      281.0000      300.0000  1090411    6.76%
    655   408      296.0000   258      281.0000      300.0000  1107136    6.76%
    669   414      296.0000   270      281.0000      300.0000  1124357    6.76%
    680   419      296.0000   182      281.0000      300.0000  1137915    6.76%
    694   421      296.0000   211      281.0000      300.0000  1155671    6.76%
    707   422      296.0000   208      281.0000      300.0000  1172929    6.76%
Elapsed time = 383.61 sec. (376795.85 ticks, tree = 7.16 MB, solutions = 1)
    717   425    infeasible            281.0000      300.0000  1191326    6.76%
    732   428    infeasible            281.0000      300.0000  1210118    6.76%
    746   429    infeasible            281.0000      300.0000  1228314    6.76%
    760   434    infeasible            281.0000      300.0000  1241035    6.76%
    772   434      300.0000   335      281.0000      300.0000  1264027    6.76%
    784   441      298.1818   465      281.0000      300.0000  1287181    6.76%
    793   447      299.0000   254      281.0000      300.0000  1306602    6.76%
    800   450      297.7902   544      281.0000      300.0000  1325357    6.76%
    812   460      298.0000   352      281.0000      300.0000  1341293    6.76%
    823   468      296.0000   330      281.0000      300.0000  1360094    6.76%
Elapsed time = 427.31 sec. (418057.56 ticks, tree = 7.96 MB, solutions = 1)
    835   474    infeasible            281.0000      300.0000  1379045    6.76%
    851   476    infeasible            281.0000      300.0000  1396229    6.76%
    867   480      296.0000   241      281.0000      300.0000  1411398    6.76%
    884   484      296.0000   243      281.0000      300.0000  1427373    6.76%
    901   491      296.0000   263      281.0000      300.0000  1439400    6.76%
    915   492    infeasible            281.0000      300.0000  1459282    6.76%
    929   495    infeasible            281.0000      300.0000  1474572    6.76%
    940   499      298.0000   504      281.0000      300.0000  1497878    6.76%
    954   507      298.0000   371      281.0000      300.0000  1521471    6.76%
    964   513      299.0000   294      281.0000      300.0000  1539477    6.76%
Elapsed time = 470.92 sec. (458611.84 ticks, tree = 8.75 MB, solutions = 1)
    976   520      297.5600   407      281.0000      300.0000  1561728    6.76%
    989   529      297.0000   296      281.0000      300.0000  1581930    6.76%
   1002   537      296.0000   337      281.0000      300.0000  1595276    6.76%
   1016   545      300.0000   336      281.0000      300.0000  1606399    6.76%
*  1018+  545                          284.0000      300.0000             5.63%
   1026   551      297.0000   502      284.0000      300.0000  1620051    5.63%
   1042   562      294.0000   260      284.0000      300.0000  1633489    5.63%
   1062   572      294.0000   188      284.0000      300.0000  1644480    5.63%
   1076   578      297.0000   398      284.0000      300.0000  1662299    5.63%
   1099   587    infeasible            284.0000      300.0000  1676226    5.63%
Starting limited solution polishing.
*  1100+  586                          285.0000      300.0000             5.26%
   1122   587    infeasible            285.0000      300.0000  1687653    5.26%
Elapsed time = 573.39 sec. (549289.59 ticks, tree = 10.02 MB, solutions = 3)
   1147   590    infeasible            285.0000      300.0000  1701074    5.26%
   1178   595    infeasible            285.0000      300.0000  1713472    5.26%
   1212   597      298.5395   471      285.0000      300.0000  1724556    5.26%
   1228   606      295.0000   336      285.0000      300.0000  1740360    5.26%
   1240   610      297.9797   516      285.0000      300.0000  1757811    5.26%

Clique cuts applied:  13
Zero-half cuts applied:  23
Gomory fractional cuts applied:  3

Root node processing (before b&c):
  Real time             =   64.98 sec. (71136.04 ticks)
Sequential b&c:
  Real time             =  531.27 sec. (498706.09 ticks)
                          ------------
Total (root+branch&cut) =  596.26 sec. (569842.13 ticks)
Primal:	285
Dual:	300
Status:	Feasible
Time:	596.28
Sequence:
	20
	9
	14
	5
	8
	14
	5
	20
	3
	5
	12
	10
	12
	6
	18
	4
	18
	5
	17
	5
	15
	5
	12
	10
	18
	0
	23
	5
	12
	10
	18
	0
	20
	5
	17
	5
	12
	9
	18
	1
	20
	8
	13
	5
	12
	10
	18
	0
	20
	5
	14
	8
	13
	5
	14
	8
	5
	14
	9
	12
	5
	18
	4
	18
	6
	14
	8
	18
	1
	18
	8
	15
	5
	10
	12
	5
	12
	10
	20
	0
	18
	5
	17
	5
	6
	17
	5
	18
	4
	18
	7
	16
	5
	5
	16
	7
	20
	2
	18
	5
	15
	5
	17
	5
	12
	10
	12
	5
	11
	12
	5
	8
	14
	7
	16
	5
	5
	17
	7
	12
	5
	16
	5
	13
	8
	20
	1
	18
	8
	12
	5
	11
	12
	5
	14
	8
	7
	12
	5
	20
	2
	20
	5
	12
	9
	5
	12
	10
	20
	0
	18
	5
	12
	8
	20
	1
	18
	8
	13
	5
	10
	14
	5
	13
	8
	18
	1
	20
	9
	12
	5
	18
	4
	19
	5
	14
	8
	20
	0
	18
	10
	12
	5
	23
	0
	20
	8
	12
	5
	20
	3
	18
	5
	17
	5
	12
	11
	12
	5
	18
	4
	20
	6
	12
	5
	16
	5
	21
	4
	18
	5
	12
	10
	20
	0
	18
	5
	14
	8
	18
	1
	18
	9
	14
	5
	5
	17
	6
	20
	2
	18
	5
	16
	7
	20
	2
	18
	5
	17
	5
	20
	3
	18
	5
	12
	5
	21
	2
	20
	5
	16
	7
	18
	4
	18
	5
	14
	8
	14
	6
	16
	5
	18
	2
	20
	7
	12
	8
	18
	1
	20
	9
	12
	5
	10
	14
	6
	8
	12
	5
	8
	12
	7
	20
	2
